c Tree-structured CNF
c Generated CNF instance
p cnf 31 86
-1 3 0
1 -3 0
3 4 0
-1 4 0
1 -4 0
4 5 0
-2 5 0
2 -5 0
5 6 0
-2 6 0
2 -6 0
6 7 0
-3 7 0
3 -7 0
7 8 0
-3 8 0
3 -8 0
8 9 0
-4 9 0
4 -9 0
9 10 0
-4 10 0
4 -10 0
10 11 0
-5 11 0
5 -11 0
11 12 0
-5 12 0
5 -12 0
12 13 0
-6 13 0
6 -13 0
13 14 0
-6 14 0
6 -14 0
14 15 0
-7 15 0
7 -15 0
15 16 0
-7 16 0
7 -16 0
16 17 0
-8 17 0
8 -17 0
17 18 0
-8 18 0
8 -18 0
18 19 0
-9 19 0
9 -19 0
19 20 0
-9 20 0
9 -20 0
20 21 0
-10 21 0
10 -21 0
21 22 0
-10 22 0
10 -22 0
22 23 0
-11 23 0
11 -23 0
23 24 0
-11 24 0
11 -24 0
24 25 0
-12 25 0
12 -25 0
25 26 0
-12 26 0
12 -26 0
26 27 0
-13 27 0
13 -27 0
27 28 0
-13 28 0
13 -28 0
28 29 0
-14 29 0
14 -29 0
29 30 0
-14 30 0
14 -30 0
30 31 0
-15 31 0
15 -31 0
